NAME /Users/henri/Research/solvers/instances/idol-instances/robust/cflp_Cheng_et_al_2021/instances/Cap_F10_C10_d80/models/uncertain_technology_matrix/
ROWS
 N  OBJ
 G  demand_0
 G  demand_1
 G  demand_2
 G  demand_3
 G  demand_4
 G  demand_5
 G  demand_6
 G  demand_7
 G  demand_8
 G  demand_9
 L  capacity_0
 L  capacity_1
 L  capacity_2
 L  capacity_3
 L  capacity_4
 L  capacity_5
 L  capacity_6
 L  capacity_7
 L  capacity_8
 L  capacity_9
COLUMNS
    __constant OBJ        1
    y_0_0      OBJ        0
    y_0_0      capacity_0 297
    y_0_0      demand_0   1
    y_0_1      OBJ        171124
    y_0_1      capacity_0 179
    y_0_1      demand_1   1
    y_0_2      OBJ        84838
    y_0_2      capacity_0 169
    y_0_2      demand_2   1
    y_0_3      OBJ        98169
    y_0_3      capacity_0 129
    y_0_3      demand_3   1
    y_0_4      OBJ        105256
    y_0_4      capacity_0 118
    y_0_4      demand_4   1
    y_0_5      OBJ        72504
    y_0_5      capacity_0 114
    y_0_5      demand_5   1
    y_0_6      OBJ        83160
    y_0_6      capacity_0 108
    y_0_6      demand_6   1
    y_0_7      OBJ        68264
    y_0_7      capacity_0 92
    y_0_7      demand_7   1
    y_0_8      OBJ        71918
    y_0_8      capacity_0 77
    y_0_8      demand_8   1
    y_0_9      OBJ        56562
    y_0_9      capacity_0 66
    y_0_9      demand_9   1
    y_1_0      OBJ        283932
    y_1_0      capacity_1 297
    y_1_0      demand_0   1
    y_1_1      OBJ        0
    y_1_1      capacity_1 179
    y_1_1      demand_1   1
    y_1_2      OBJ        91091
    y_1_2      capacity_1 169
    y_1_2      demand_2   1
    y_1_3      OBJ        41409
    y_1_3      capacity_1 129
    y_1_3      demand_3   1
    y_1_4      OBJ        9204
    y_1_4      capacity_1 118
    y_1_4      demand_4   1
    y_1_5      OBJ        36708
    y_1_5      capacity_1 114
    y_1_5      demand_5   1
    y_1_6      OBJ        20628
    y_1_6      capacity_1 108
    y_1_6      demand_6   1
    y_1_7      OBJ        19780
    y_1_7      capacity_1 92
    y_1_7      demand_7   1
    y_1_8      OBJ        4004
    y_1_8      capacity_1 77
    y_1_8      demand_8   1
    y_1_9      OBJ        11022
    y_1_9      capacity_1 66
    y_1_9      demand_9   1
    y_2_0      OBJ        149094
    y_2_0      capacity_2 297
    y_2_0      demand_0   1
    y_2_1      OBJ        96481
    y_2_1      capacity_2 179
    y_2_1      demand_1   1
    y_2_2      OBJ        0
    y_2_2      capacity_2 169
    y_2_2      demand_2   1
    y_2_3      OBJ        34701
    y_2_3      capacity_2 129
    y_2_3      demand_3   1
    y_2_4      OBJ        54516
    y_2_4      capacity_2 118
    y_2_4      demand_4   1
    y_2_5      OBJ        28386
    y_2_5      capacity_2 114
    y_2_5      demand_5   1
    y_2_6      OBJ        38124
    y_2_6      capacity_2 108
    y_2_6      demand_6   1
    y_2_7      OBJ        33304
    y_2_7      capacity_2 92
    y_2_7      demand_7   1
    y_2_8      OBJ        38500
    y_2_8      capacity_2 77
    y_2_8      demand_8   1
    y_2_9      OBJ        26202
    y_2_9      capacity_2 66
    y_2_9      demand_9   1
    y_3_0      OBJ        226017
    y_3_0      capacity_3 297
    y_3_0      demand_0   1
    y_3_1      OBJ        57459
    y_3_1      capacity_3 179
    y_3_1      demand_1   1
    y_3_2      OBJ        45461
    y_3_2      capacity_3 169
    y_3_2      demand_2   1
    y_3_3      OBJ        0
    y_3_3      capacity_3 129
    y_3_3      demand_3   1
    y_3_4      OBJ        28910
    y_3_4      capacity_3 118
    y_3_4      demand_4   1
    y_3_5      OBJ        24510
    y_3_5      capacity_3 114
    y_3_5      demand_5   1
    y_3_6      OBJ        20736
    y_3_6      capacity_3 108
    y_3_6      demand_6   1
    y_3_7      OBJ        22540
    y_3_7      capacity_3 92
    y_3_7      demand_7   1
    y_3_8      OBJ        20944
    y_3_8      capacity_3 77
    y_3_8      demand_8   1
    y_3_9      OBJ        10230
    y_3_9      capacity_3 66
    y_3_9      demand_9   1
    y_4_0      OBJ        264924
    y_4_0      capacity_4 297
    y_4_0      demand_0   1
    y_4_1      OBJ        13962
    y_4_1      capacity_4 179
    y_4_1      demand_1   1
    y_4_2      OBJ        78078
    y_4_2      capacity_4 169
    y_4_2      demand_2   1
    y_4_3      OBJ        31605
    y_4_3      capacity_4 129
    y_4_3      demand_3   1
    y_4_4      OBJ        0
    y_4_4      capacity_4 118
    y_4_4      demand_4   1
    y_4_5      OBJ        29070
    y_4_5      capacity_4 114
    y_4_5      demand_5   1
    y_4_6      OBJ        13176
    y_4_6      capacity_4 108
    y_4_6      demand_6   1
    y_4_7      OBJ        14720
    y_4_7      capacity_4 92
    y_4_7      demand_7   1
    y_4_8      OBJ        3234
    y_4_8      capacity_4 77
    y_4_8      demand_8   1
    y_4_9      OBJ        6270
    y_4_9      capacity_4 66
    y_4_9      demand_9   1
    y_5_0      OBJ        188892
    y_5_0      capacity_5 297
    y_5_0      demand_0   1
    y_5_1      OBJ        57638
    y_5_1      capacity_5 179
    y_5_1      demand_1   1
    y_5_2      OBJ        42081
    y_5_2      capacity_5 169
    y_5_2      demand_2   1
    y_5_3      OBJ        27735
    y_5_3      capacity_5 129
    y_5_3      demand_3   1
    y_5_4      OBJ        30090
    y_5_4      capacity_5 118
    y_5_4      demand_4   1
    y_5_5      OBJ        0
    y_5_5      capacity_5 114
    y_5_5      demand_5   1
    y_5_6      OBJ        14364
    y_5_6      capacity_5 108
    y_5_6      demand_6   1
    y_5_7      OBJ        10764
    y_5_7      capacity_5 92
    y_5_7      demand_7   1
    y_5_8      OBJ        22869
    y_5_8      capacity_5 77
    y_5_8      demand_8   1
    y_5_9      OBJ        15378
    y_5_9      capacity_5 66
    y_5_9      demand_9   1
    y_6_0      OBJ        228690
    y_6_0      capacity_6 297
    y_6_0      demand_0   1
    y_6_1      OBJ        34189
    y_6_1      capacity_6 179
    y_6_1      demand_1   1
    y_6_2      OBJ        59657
    y_6_2      capacity_6 169
    y_6_2      demand_2   1
    y_6_3      OBJ        24768
    y_6_3      capacity_6 129
    y_6_3      demand_3   1
    y_6_4      OBJ        14396
    y_6_4      capacity_6 118
    y_6_4      demand_4   1
    y_6_5      OBJ        15162
    y_6_5      capacity_6 114
    y_6_5      demand_5   1
    y_6_6      OBJ        0
    y_6_6      capacity_6 108
    y_6_6      demand_6   1
    y_6_7      OBJ        5704
    y_6_7      capacity_6 92
    y_6_7      demand_7   1
    y_6_8      OBJ        12628
    y_6_8      capacity_6 77
    y_6_8      demand_8   1
    y_6_9      OBJ        7920
    y_6_9      capacity_6 66
    y_6_9      demand_9   1
    y_7_0      OBJ        220374
    y_7_0      capacity_7 297
    y_7_0      demand_0   1
    y_7_1      OBJ        38485
    y_7_1      capacity_7 179
    y_7_1      demand_1   1
    y_7_2      OBJ        61178
    y_7_2      capacity_7 169
    y_7_2      demand_2   1
    y_7_3      OBJ        31605
    y_7_3      capacity_7 129
    y_7_3      demand_3   1
    y_7_4      OBJ        18880
    y_7_4      capacity_7 118
    y_7_4      demand_4   1
    y_7_5      OBJ        13338
    y_7_5      capacity_7 114
    y_7_5      demand_5   1
    y_7_6      OBJ        6696
    y_7_6      capacity_7 108
    y_7_6      demand_6   1
    y_7_7      OBJ        0
    y_7_7      capacity_7 92
    y_7_7      demand_7   1
    y_7_8      OBJ        15554
    y_7_8      capacity_7 77
    y_7_8      demand_8   1
    y_7_9      OBJ        11946
    y_7_9      capacity_7 66
    y_7_9      demand_9   1
    y_8_0      OBJ        277398
    y_8_0      capacity_8 297
    y_8_0      demand_0   1
    y_8_1      OBJ        9308
    y_8_1      capacity_8 179
    y_8_1      demand_1   1
    y_8_2      OBJ        84500
    y_8_2      capacity_8 169
    y_8_2      demand_2   1
    y_8_3      OBJ        35088
    y_8_3      capacity_8 129
    y_8_3      demand_3   1
    y_8_4      OBJ        4956
    y_8_4      capacity_8 118
    y_8_4      demand_4   1
    y_8_5      OBJ        33858
    y_8_5      capacity_8 114
    y_8_5      demand_5   1
    y_8_6      OBJ        17712
    y_8_6      capacity_8 108
    y_8_6      demand_6   1
    y_8_7      OBJ        18584
    y_8_7      capacity_8 92
    y_8_7      demand_7   1
    y_8_8      OBJ        0
    y_8_8      capacity_8 77
    y_8_8      demand_8   1
    y_8_9      OBJ        7722
    y_8_9      capacity_8 66
    y_8_9      demand_9   1
    y_9_0      OBJ        254529
    y_9_0      capacity_9 297
    y_9_0      demand_0   1
    y_9_1      OBJ        29893
    y_9_1      capacity_9 179
    y_9_1      demand_1   1
    y_9_2      OBJ        67093
    y_9_2      capacity_9 169
    y_9_2      demand_2   1
    y_9_3      OBJ        19995
    y_9_3      capacity_9 129
    y_9_3      demand_3   1
    y_9_4      OBJ        11210
    y_9_4      capacity_9 118
    y_9_4      demand_4   1
    y_9_5      OBJ        26562
    y_9_5      capacity_9 114
    y_9_5      demand_5   1
    y_9_6      OBJ        12960
    y_9_6      capacity_9 108
    y_9_6      demand_6   1
    y_9_7      OBJ        16652
    y_9_7      capacity_9 92
    y_9_7      demand_7   1
    y_9_8      OBJ        9009
    y_9_8      capacity_9 77
    y_9_8      demand_8   1
    y_9_9      OBJ        0
    y_9_9      capacity_9 66
    y_9_9      demand_9   1
    z_0        OBJ        148500
    z_0        demand_0   1
    z_1        OBJ        89500
    z_1        demand_1   1
    z_2        OBJ        84500
    z_2        demand_2   1
    z_3        OBJ        64500
    z_3        demand_3   1
    z_4        OBJ        59000
    z_4        demand_4   1
    z_5        OBJ        57000
    z_5        demand_5   1
    z_6        OBJ        54000
    z_6        demand_6   1
    z_7        OBJ        46000
    z_7        demand_7   1
    z_8        OBJ        38500
    z_8        demand_8   1
    z_9        OBJ        33000
    z_9        demand_9   1
    MARKER    'MARKER'                 'INTORG'
    x_0        OBJ        115800
    x_0        capacity_0 -382
    x_1        OBJ        101800
    x_1        capacity_1 -366
    x_2        OBJ        72600
    x_2        capacity_2 -170
    x_3        OBJ        72400
    x_3        capacity_3 -302
    x_4        OBJ        38400
    x_4        capacity_4 -169
    x_5        OBJ        59200
    x_5        capacity_5 -224
    x_6        OBJ        66000
    x_6        capacity_6 -391
    x_7        OBJ        48400
    x_7        capacity_7 -191
    x_8        OBJ        71300
    x_8        capacity_8 -377
    x_9        OBJ        96600
    x_9        capacity_9 -332
    MARKER    'MARKER'                 'INTEND'
RHS
    RHS       demand_0   1
    RHS       demand_1   1
    RHS       demand_2   1
    RHS       demand_3   1
    RHS       demand_4   1
    RHS       demand_5   1
    RHS       demand_6   1
    RHS       demand_7   1
    RHS       demand_8   1
    RHS       demand_9   1
    RHS       capacity_0 -0
    RHS       capacity_1 -0
    RHS       capacity_2 -0
    RHS       capacity_3 -0
    RHS       capacity_4 -0
    RHS       capacity_5 -0
    RHS       capacity_6 -0
    RHS       capacity_7 -0
    RHS       capacity_8 -0
    RHS       capacity_9 -0
BOUNDS
 FX BND       __constant 0
 LI BND       x_0        0
 UI BND       x_0        1
 LI BND       x_1        0
 UI BND       x_1        1
 LI BND       x_2        0
 UI BND       x_2        1
 LI BND       x_3        0
 UI BND       x_3        1
 LI BND       x_4        0
 UI BND       x_4        1
 LI BND       x_5        0
 UI BND       x_5        1
 LI BND       x_6        0
 UI BND       x_6        1
 LI BND       x_7        0
 UI BND       x_7        1
 LI BND       x_8        0
 UI BND       x_8        1
 LI BND       x_9        0
 UI BND       x_9        1
 LO BND       y_0_0      0
 UP BND       y_0_0      1
 LO BND       y_0_1      0
 UP BND       y_0_1      1
 LO BND       y_0_2      0
 UP BND       y_0_2      1
 LO BND       y_0_3      0
 UP BND       y_0_3      1
 LO BND       y_0_4      0
 UP BND       y_0_4      1
 LO BND       y_0_5      0
 UP BND       y_0_5      1
 LO BND       y_0_6      0
 UP BND       y_0_6      1
 LO BND       y_0_7      0
 UP BND       y_0_7      1
 LO BND       y_0_8      0
 UP BND       y_0_8      1
 LO BND       y_0_9      0
 UP BND       y_0_9      1
 LO BND       y_1_0      0
 UP BND       y_1_0      1
 LO BND       y_1_1      0
 UP BND       y_1_1      1
 LO BND       y_1_2      0
 UP BND       y_1_2      1
 LO BND       y_1_3      0
 UP BND       y_1_3      1
 LO BND       y_1_4      0
 UP BND       y_1_4      1
 LO BND       y_1_5      0
 UP BND       y_1_5      1
 LO BND       y_1_6      0
 UP BND       y_1_6      1
 LO BND       y_1_7      0
 UP BND       y_1_7      1
 LO BND       y_1_8      0
 UP BND       y_1_8      1
 LO BND       y_1_9      0
 UP BND       y_1_9      1
 LO BND       y_2_0      0
 UP BND       y_2_0      1
 LO BND       y_2_1      0
 UP BND       y_2_1      1
 LO BND       y_2_2      0
 UP BND       y_2_2      1
 LO BND       y_2_3      0
 UP BND       y_2_3      1
 LO BND       y_2_4      0
 UP BND       y_2_4      1
 LO BND       y_2_5      0
 UP BND       y_2_5      1
 LO BND       y_2_6      0
 UP BND       y_2_6      1
 LO BND       y_2_7      0
 UP BND       y_2_7      1
 LO BND       y_2_8      0
 UP BND       y_2_8      1
 LO BND       y_2_9      0
 UP BND       y_2_9      1
 LO BND       y_3_0      0
 UP BND       y_3_0      1
 LO BND       y_3_1      0
 UP BND       y_3_1      1
 LO BND       y_3_2      0
 UP BND       y_3_2      1
 LO BND       y_3_3      0
 UP BND       y_3_3      1
 LO BND       y_3_4      0
 UP BND       y_3_4      1
 LO BND       y_3_5      0
 UP BND       y_3_5      1
 LO BND       y_3_6      0
 UP BND       y_3_6      1
 LO BND       y_3_7      0
 UP BND       y_3_7      1
 LO BND       y_3_8      0
 UP BND       y_3_8      1
 LO BND       y_3_9      0
 UP BND       y_3_9      1
 LO BND       y_4_0      0
 UP BND       y_4_0      1
 LO BND       y_4_1      0
 UP BND       y_4_1      1
 LO BND       y_4_2      0
 UP BND       y_4_2      1
 LO BND       y_4_3      0
 UP BND       y_4_3      1
 LO BND       y_4_4      0
 UP BND       y_4_4      1
 LO BND       y_4_5      0
 UP BND       y_4_5      1
 LO BND       y_4_6      0
 UP BND       y_4_6      1
 LO BND       y_4_7      0
 UP BND       y_4_7      1
 LO BND       y_4_8      0
 UP BND       y_4_8      1
 LO BND       y_4_9      0
 UP BND       y_4_9      1
 LO BND       y_5_0      0
 UP BND       y_5_0      1
 LO BND       y_5_1      0
 UP BND       y_5_1      1
 LO BND       y_5_2      0
 UP BND       y_5_2      1
 LO BND       y_5_3      0
 UP BND       y_5_3      1
 LO BND       y_5_4      0
 UP BND       y_5_4      1
 LO BND       y_5_5      0
 UP BND       y_5_5      1
 LO BND       y_5_6      0
 UP BND       y_5_6      1
 LO BND       y_5_7      0
 UP BND       y_5_7      1
 LO BND       y_5_8      0
 UP BND       y_5_8      1
 LO BND       y_5_9      0
 UP BND       y_5_9      1
 LO BND       y_6_0      0
 UP BND       y_6_0      1
 LO BND       y_6_1      0
 UP BND       y_6_1      1
 LO BND       y_6_2      0
 UP BND       y_6_2      1
 LO BND       y_6_3      0
 UP BND       y_6_3      1
 LO BND       y_6_4      0
 UP BND       y_6_4      1
 LO BND       y_6_5      0
 UP BND       y_6_5      1
 LO BND       y_6_6      0
 UP BND       y_6_6      1
 LO BND       y_6_7      0
 UP BND       y_6_7      1
 LO BND       y_6_8      0
 UP BND       y_6_8      1
 LO BND       y_6_9      0
 UP BND       y_6_9      1
 LO BND       y_7_0      0
 UP BND       y_7_0      1
 LO BND       y_7_1      0
 UP BND       y_7_1      1
 LO BND       y_7_2      0
 UP BND       y_7_2      1
 LO BND       y_7_3      0
 UP BND       y_7_3      1
 LO BND       y_7_4      0
 UP BND       y_7_4      1
 LO BND       y_7_5      0
 UP BND       y_7_5      1
 LO BND       y_7_6      0
 UP BND       y_7_6      1
 LO BND       y_7_7      0
 UP BND       y_7_7      1
 LO BND       y_7_8      0
 UP BND       y_7_8      1
 LO BND       y_7_9      0
 UP BND       y_7_9      1
 LO BND       y_8_0      0
 UP BND       y_8_0      1
 LO BND       y_8_1      0
 UP BND       y_8_1      1
 LO BND       y_8_2      0
 UP BND       y_8_2      1
 LO BND       y_8_3      0
 UP BND       y_8_3      1
 LO BND       y_8_4      0
 UP BND       y_8_4      1
 LO BND       y_8_5      0
 UP BND       y_8_5      1
 LO BND       y_8_6      0
 UP BND       y_8_6      1
 LO BND       y_8_7      0
 UP BND       y_8_7      1
 LO BND       y_8_8      0
 UP BND       y_8_8      1
 LO BND       y_8_9      0
 UP BND       y_8_9      1
 LO BND       y_9_0      0
 UP BND       y_9_0      1
 LO BND       y_9_1      0
 UP BND       y_9_1      1
 LO BND       y_9_2      0
 UP BND       y_9_2      1
 LO BND       y_9_3      0
 UP BND       y_9_3      1
 LO BND       y_9_4      0
 UP BND       y_9_4      1
 LO BND       y_9_5      0
 UP BND       y_9_5      1
 LO BND       y_9_6      0
 UP BND       y_9_6      1
 LO BND       y_9_7      0
 UP BND       y_9_7      1
 LO BND       y_9_8      0
 UP BND       y_9_8      1
 LO BND       y_9_9      0
 UP BND       y_9_9      1
 LO BND       z_0        0
 UP BND       z_0        1
 LO BND       z_1        0
 UP BND       z_1        1
 LO BND       z_2        0
 UP BND       z_2        1
 LO BND       z_3        0
 UP BND       z_3        1
 LO BND       z_4        0
 UP BND       z_4        1
 LO BND       z_5        0
 UP BND       z_5        1
 LO BND       z_6        0
 UP BND       z_6        1
 LO BND       z_7        0
 UP BND       z_7        1
 LO BND       z_8        0
 UP BND       z_8        1
 LO BND       z_9        0
 UP BND       z_9        1
ENDATA
